c description: Graph pigeonhole principle formula on fast_gnp_random_graph(20,10,0.5)
c generator: CNFgen (0.9.0)
c copyright: (C) 2012-2020 Massimo Lauria <massimo.lauria@uniroma1.it>
c url: https://massimolauria.net/cnfgen
c
p cnf 103 502
1 2 3 4 5 6 7 8 0
9 10 11 12 13 0
14 15 16 17 18 19 0
20 21 22 23 24 25 0
26 27 28 29 0
30 31 32 33 34 35 0
36 37 38 39 40 41 42 0
43 44 45 46 47 48 0
49 50 51 52 0
53 54 55 56 57 58 0
59 60 61 62 0
63 64 65 66 0
67 68 69 70 71 0
72 73 0
74 75 76 77 78 79 0
80 81 82 83 84 85 0
86 87 88 89 0
90 91 92 93 94 95 0
96 97 98 99 100 0
101 102 103 0
-1 -9 0
-1 -20 0
-1 -30 0
-1 -43 0
-1 -53 0
-1 -59 0
-1 -63 0
-1 -96 0
-9 -20 0
-9 -30 0
-9 -43 0
-9 -53 0
-9 -59 0
-9 -63 0
-9 -96 0
-20 -30 0
-20 -43 0
-20 -53 0
-20 -59 0
-20 -63 0
-20 -96 0
-30 -43 0
-30 -53 0
-30 -59 0
-30 -63 0
-30 -96 0
-43 -53 0
-43 -59 0
-43 -63 0
-43 -96 0
-53 -59 0
-53 -63 0
-53 -96 0
-59 -63 0
-59 -96 0
-63 -96 0
-2 -10 0
-2 -14 0
-2 -21 0
-2 -31 0
-2 -36 0
-2 -49 0
-2 -67 0
-2 -74 0
-2 -90 0
-2 -97 0
-10 -14 0
-10 -21 0
-10 -31 0
-10 -36 0
-10 -49 0
-10 -67 0
-10 -74 0
-10 -90 0
-10 -97 0
-14 -21 0
-14 -31 0
-14 -36 0
-14 -49 0
-14 -67 0
-14 -74 0
-14 -90 0
-14 -97 0
-21 -31 0
-21 -36 0
-21 -49 0
-21 -67 0
-21 -74 0
-21 -90 0
-21 -97 0
-31 -36 0
-31 -49 0
-31 -67 0
-31 -74 0
-31 -90 0
-31 -97 0
-36 -49 0
-36 -67 0
-36 -74 0
-36 -90 0
-36 -97 0
-49 -67 0
-49 -74 0
-49 -90 0
-49 -97 0
-67 -74 0
-67 -90 0
-67 -97 0
-74 -90 0
-74 -97 0
-90 -97 0
-3 -15 0
-3 -22 0
-3 -26 0
-3 -32 0
-3 -37 0
-3 -44 0
-3 -50 0
-3 -54 0
-3 -86 0
-3 -91 0
-15 -22 0
-15 -26 0
-15 -32 0
-15 -37 0
-15 -44 0
-15 -50 0
-15 -54 0
-15 -86 0
-15 -91 0
-22 -26 0
-22 -32 0
-22 -37 0
-22 -44 0
-22 -50 0
-22 -54 0
-22 -86 0
-22 -91 0
-26 -32 0
-26 -37 0
-26 -44 0
-26 -50 0
-26 -54 0
-26 -86 0
-26 -91 0
-32 -37 0
-32 -44 0
-32 -50 0
-32 -54 0
-32 -86 0
-32 -91 0
-37 -44 0
-37 -50 0
-37 -54 0
-37 -86 0
-37 -91 0
-44 -50 0
-44 -54 0
-44 -86 0
-44 -91 0
-50 -54 0
-50 -86 0
-50 -91 0
-54 -86 0
-54 -91 0
-86 -91 0
-27 -33 0
-27 -38 0
-27 -45 0
-27 -51 0
-27 -55 0
-27 -60 0
-27 -80 0
-27 -92 0
-33 -38 0
-33 -45 0
-33 -51 0
-33 -55 0
-33 -60 0
-33 -80 0
-33 -92 0
-38 -45 0
-38 -51 0
-38 -55 0
-38 -60 0
-38 -80 0
-38 -92 0
-45 -51 0
-45 -55 0
-45 -60 0
-45 -80 0
-45 -92 0
-51 -55 0
-51 -60 0
-51 -80 0
-51 -92 0
-55 -60 0
-55 -80 0
-55 -92 0
-60 -80 0
-60 -92 0
-80 -92 0
-4 -16 0
-4 -39 0
-4 -56 0
-4 -61 0
-4 -68 0
-4 -72 0
-4 -75 0
-4 -81 0
-4 -87 0
-4 -93 0
-16 -39 0
-16 -56 0
-16 -61 0
-16 -68 0
-16 -72 0
-16 -75 0
-16 -81 0
-16 -87 0
-16 -93 0
-39 -56 0
-39 -61 0
-39 -68 0
-39 -72 0
-39 -75 0
-39 -81 0
-39 -87 0
-39 -93 0
-56 -61 0
-56 -68 0
-56 -72 0
-56 -75 0
-56 -81 0
-56 -87 0
-56 -93 0
-61 -68 0
-61 -72 0
-61 -75 0
-61 -81 0
-61 -87 0
-61 -93 0
-68 -72 0
-68 -75 0
-68 -81 0
-68 -87 0
-68 -93 0
-72 -75 0
-72 -81 0
-72 -87 0
-72 -93 0
-75 -81 0
-75 -87 0
-75 -93 0
-81 -87 0
-81 -93 0
-87 -93 0
-11 -17 0
-11 -23 0
-11 -28 0
-11 -40 0
-11 -46 0
-11 -64 0
-11 -69 0
-11 -76 0
-11 -82 0
-11 -94 0
-17 -23 0
-17 -28 0
-17 -40 0
-17 -46 0
-17 -64 0
-17 -69 0
-17 -76 0
-17 -82 0
-17 -94 0
-23 -28 0
-23 -40 0
-23 -46 0
-23 -64 0
-23 -69 0
-23 -76 0
-23 -82 0
-23 -94 0
-28 -40 0
-28 -46 0
-28 -64 0
-28 -69 0
-28 -76 0
-28 -82 0
-28 -94 0
-40 -46 0
-40 -64 0
-40 -69 0
-40 -76 0
-40 -82 0
-40 -94 0
-46 -64 0
-46 -69 0
-46 -76 0
-46 -82 0
-46 -94 0
-64 -69 0
-64 -76 0
-64 -82 0
-64 -94 0
-69 -76 0
-69 -82 0
-69 -94 0
-76 -82 0
-76 -94 0
-82 -94 0
-5 -29 0
-5 -47 0
-5 -57 0
-5 -62 0
-5 -70 0
-5 -73 0
-5 -77 0
-5 -83 0
-5 -88 0
-5 -98 0
-29 -47 0
-29 -57 0
-29 -62 0
-29 -70 0
-29 -73 0
-29 -77 0
-29 -83 0
-29 -88 0
-29 -98 0
-47 -57 0
-47 -62 0
-47 -70 0
-47 -73 0
-47 -77 0
-47 -83 0
-47 -88 0
-47 -98 0
-57 -62 0
-57 -70 0
-57 -73 0
-57 -77 0
-57 -83 0
-57 -88 0
-57 -98 0
-62 -70 0
-62 -73 0
-62 -77 0
-62 -83 0
-62 -88 0
-62 -98 0
-70 -73 0
-70 -77 0
-70 -83 0
-70 -88 0
-70 -98 0
-73 -77 0
-73 -83 0
-73 -88 0
-73 -98 0
-77 -83 0
-77 -88 0
-77 -98 0
-83 -88 0
-83 -98 0
-88 -98 0
-6 -12 0
-6 -18 0
-6 -24 0
-6 -34 0
-6 -52 0
-6 -65 0
-6 -78 0
-6 -84 0
-6 -101 0
-12 -18 0
-12 -24 0
-12 -34 0
-12 -52 0
-12 -65 0
-12 -78 0
-12 -84 0
-12 -101 0
-18 -24 0
-18 -34 0
-18 -52 0
-18 -65 0
-18 -78 0
-18 -84 0
-18 -101 0
-24 -34 0
-24 -52 0
-24 -65 0
-24 -78 0
-24 -84 0
-24 -101 0
-34 -52 0
-34 -65 0
-34 -78 0
-34 -84 0
-34 -101 0
-52 -65 0
-52 -78 0
-52 -84 0
-52 -101 0
-65 -78 0
-65 -84 0
-65 -101 0
-78 -84 0
-78 -101 0
-84 -101 0
-7 -13 0
-7 -25 0
-7 -41 0
-7 -66 0
-7 -71 0
-7 -89 0
-7 -95 0
-7 -99 0
-7 -102 0
-13 -25 0
-13 -41 0
-13 -66 0
-13 -71 0
-13 -89 0
-13 -95 0
-13 -99 0
-13 -102 0
-25 -41 0
-25 -66 0
-25 -71 0
-25 -89 0
-25 -95 0
-25 -99 0
-25 -102 0
-41 -66 0
-41 -71 0
-41 -89 0
-41 -95 0
-41 -99 0
-41 -102 0
-66 -71 0
-66 -89 0
-66 -95 0
-66 -99 0
-66 -102 0
-71 -89 0
-71 -95 0
-71 -99 0
-71 -102 0
-89 -95 0
-89 -99 0
-89 -102 0
-95 -99 0
-95 -102 0
-99 -102 0
-8 -19 0
-8 -35 0
-8 -42 0
-8 -48 0
-8 -58 0
-8 -79 0
-8 -85 0
-8 -100 0
-8 -103 0
-19 -35 0
-19 -42 0
-19 -48 0
-19 -58 0
-19 -79 0
-19 -85 0
-19 -100 0
-19 -103 0
-35 -42 0
-35 -48 0
-35 -58 0
-35 -79 0
-35 -85 0
-35 -100 0
-35 -103 0
-42 -48 0
-42 -58 0
-42 -79 0
-42 -85 0
-42 -100 0
-42 -103 0
-48 -58 0
-48 -79 0
-48 -85 0
-48 -100 0
-48 -103 0
-58 -79 0
-58 -85 0
-58 -100 0
-58 -103 0
-79 -85 0
-79 -100 0
-79 -103 0
-85 -100 0
-85 -103 0
-100 -103 0